! B3LYP D3BJ 6-311++G(d,p) OPT FREQ RIJCOSX VeryTightSCF DefGrid3 CPCM(Water) PAL16

% maxcore 4096

* xyz 0 1
   C        0.99284        4.00599       -0.06713
   H        0.98430        5.08201       -0.13933
   C       -0.17716        3.27056       -0.07228
   H       -1.12344        3.78332       -0.15005
   C       -0.16427        1.87845        0.02086
   H       -1.10334        1.34644        0.01262
   C        1.01439        1.16724        0.12308
   H        1.02360        0.09221        0.19506
   C        2.20293        1.88708        0.13079
   C        2.17801        3.29926        0.03514
   N        3.49624        3.68965        0.07080
   H        3.88955        4.61820        0.02684
   C        4.22347        2.54510        0.18223
   N        3.50773        1.45397        0.22206
   N        5.60040        2.53550        0.24787
   H        6.03444        1.62471        0.33253
   C        6.39567        3.63646        0.20361
   O        6.00029        4.78252        0.10238
   O        7.68046        3.28809        0.28871
   C        8.63904        4.35030        0.25717
   H        8.55185        4.90710       -0.67620
   H        8.47519        5.02848        1.09506
   H        9.60627        3.86414        0.33238
*