! LibXC(B3LYP) D3BJ def2-TZVP RIJCOSX VeryTightSCF DefGrid3 CPCM(Water) PAL8

% maxcore 4096

%TDDFT
    NROOTS 24
    IROOT 1
END

%ESD
    ESDFLAG ABS
    GSHESSIAN "cbzs0.hess"
    DOHT TRUE
    HESSFLAG VG
END

* xyzfile 0 1 cbzs0.xyz
